Academic license - for non-commercial use only
Gurobi Optimizer version 9.0.3 build v9.0.3rc0 (mac64)
Optimize a model with 127786 rows, 120480 columns and 691170 nonzeros
Model fingerprint: 0x4acbaf3b
Variable types: 0 continuous, 120480 integer (120480 binary)
Coefficient statistics:
  Matrix range     [1e+00, 1e+00]
  Objective range  [1e+01, 5e+04]
  Bounds range     [1e+00, 1e+00]
  RHS range        [1e+00, 5e+02]
Presolve added 0 rows and 2970 columns
Presolve removed 30 rows and 0 columns
Presolve time: 1.70s
Presolved: 127756 rows, 123450 columns, 520110 nonzeros
Variable types: 0 continuous, 123450 integer (123450 binary)
Found heuristic solution: objective 361495.00000

Concurrent LP optimizer: dual simplex and barrier
Showing barrier log only...

Root barrier log...

Ordering time: 0.03s

Barrier statistics:
 Dense cols : 240
 AA' NZ     : 4.061e+05
 Factor NZ  : 1.637e+06 (roughly 120 MBytes of memory)
 Factor Ops : 2.201e+08 (less than 1 second per iteration)
 Threads    : 3

                  Objective                Residual
Iter       Primal          Dual         Primal    Dual     Compl     Time
   0   1.22264358e+08 -1.76825448e+08  2.69e+02 3.08e+01  1.58e+04     3s
   1   1.08418816e+06 -1.82010249e+08  7.45e+00 6.05e+03  6.72e+02     3s
   2   5.45073335e+05 -1.65173864e+07  1.73e+00 4.25e+02  6.51e+01     4s
   3   3.99466074e+05 -1.74526422e+06  2.20e-01 3.56e+00  6.30e+00     4s
   4   3.53521948e+05 -2.63444227e+04  4.28e-03 5.23e-01  1.02e+00     4s
   5   3.41980849e+05  1.57478414e+05  3.42e-03 1.96e-01  4.97e-01     4s
   6   3.28727724e+05  2.25560250e+05  2.66e-03 8.40e-02  2.77e-01     4s
   7   3.21681791e+05  2.48241654e+05  2.31e-03 4.54e-02  1.97e-01     4s
   8   3.17494153e+05  2.53721441e+05  2.11e-03 3.50e-02  1.71e-01     4s
   9   3.13336091e+05  2.57952256e+05  1.90e-03 2.66e-02  1.49e-01     5s
  10   3.02725897e+05  2.61919987e+05  1.41e-03 1.96e-02  1.10e-01     5s
  11   2.97152798e+05  2.65539347e+05  1.18e-03 1.29e-02  8.49e-02     5s
  12   2.92576479e+05  2.67840830e+05  9.56e-04 8.51e-03  6.64e-02     5s
  13   2.91609353e+05  2.68539615e+05  9.07e-04 7.33e-03  6.20e-02     5s
  14   2.87113611e+05  2.69580100e+05  6.99e-04 5.44e-03  4.71e-02     5s
  15   2.86561781e+05  2.69756191e+05  6.75e-04 5.16e-03  4.51e-02     6s
  16   2.83343907e+05  2.70575635e+05  5.31e-04 3.72e-03  3.43e-02     6s
  17   2.80839100e+05  2.71215403e+05  4.17e-04 2.64e-03  2.58e-02     6s
  18   2.79487397e+05  2.71566660e+05  3.49e-04 2.05e-03  2.13e-02     6s
  19   2.78342796e+05  2.71887752e+05  2.93e-04 1.52e-03  1.73e-02     6s
  20   2.77331874e+05  2.72112984e+05  2.43e-04 1.17e-03  1.40e-02     6s
  21   2.76601327e+05  2.72305271e+05  2.05e-04 8.77e-04  1.15e-02     7s
  22   2.75788868e+05  2.72413783e+05  1.65e-04 8.32e-04  9.06e-03     7s
  23   2.75373105e+05  2.72588424e+05  1.44e-04 4.89e-04  7.47e-03     7s
  24   2.74999087e+05  2.72639055e+05  1.24e-04 4.18e-04  6.33e-03     7s
  25   2.74710637e+05  2.72680289e+05  1.07e-04 3.82e-04  5.45e-03     7s
  26   2.74575263e+05  2.72724775e+05  9.94e-05 2.96e-04  4.97e-03     7s
  27   2.74283726e+05  2.72758863e+05  8.31e-05 2.40e-04  4.09e-03     8s
  28   2.73986611e+05  2.72787173e+05  6.56e-05 1.96e-04  3.22e-03     8s
  29   2.73824968e+05  2.72808007e+05  5.73e-05 1.69e-04  2.73e-03     8s
  30   2.73719234e+05  2.72833450e+05  5.04e-05 1.32e-04  2.38e-03     8s
  31   2.73600300e+05  2.72852889e+05  4.29e-05 1.06e-04  2.01e-03     8s
  32   2.73474621e+05  2.72866844e+05  3.56e-05 8.25e-05  1.63e-03     8s
  33   2.73364836e+05  2.72876920e+05  2.91e-05 6.73e-05  1.31e-03     9s
  34   2.73313787e+05  2.72884338e+05  2.57e-05 5.57e-05  1.15e-03     9s
  35   2.73238242e+05  2.72892969e+05  2.11e-05 4.49e-05  9.26e-04     9s
  36   2.73201696e+05  2.72901416e+05  1.87e-05 3.59e-05  8.05e-04     9s
  37   2.73154822e+05  2.72906409e+05  1.55e-05 2.97e-05  6.66e-04     9s
  38   2.73115491e+05  2.72909736e+05  1.28e-05 2.54e-05  5.52e-04     9s
  39   2.73086654e+05  2.72912455e+05  1.09e-05 2.22e-05  4.67e-04    10s
  40   2.73064263e+05  2.72918559e+05  9.33e-06 1.59e-05  3.91e-04    10s
  41   2.73045806e+05  2.72920755e+05  8.04e-06 1.34e-05  3.35e-04    10s
  42   2.73029309e+05  2.72922410e+05  6.90e-06 1.29e-05  2.87e-04    10s
  43   2.73009415e+05  2.72923584e+05  5.52e-06 1.20e-05  2.30e-04    10s
  44   2.72996925e+05  2.72925244e+05  4.70e-06 1.04e-05  1.92e-04    10s
  45   2.72980079e+05  2.72927061e+05  3.53e-06 8.19e-06  1.42e-04    10s
  46   2.72966673e+05  2.72928447e+05  2.59e-06 6.63e-06  1.03e-04    11s
  47   2.72960488e+05  2.72930259e+05  2.12e-06 4.00e-06  8.11e-05    11s
  48   2.72955236e+05  2.72930919e+05  1.72e-06 3.38e-06  6.52e-05    11s
  49   2.72949734e+05  2.72931460e+05  1.28e-06 2.66e-06  4.90e-05    11s
  50   2.72946179e+05  2.72932040e+05  1.03e-06 2.20e-06  3.79e-05    11s
  51   2.72943628e+05  2.72932300e+05  8.24e-07 1.76e-06  3.04e-05    11s
  52   2.72941579e+05  2.72932426e+05  6.53e-07 1.58e-06  2.45e-05    11s
  53   2.72940774e+05  2.72932797e+05  5.92e-07 1.11e-06  2.14e-05    12s
  54   2.72938972e+05  2.72933024e+05  4.42e-07 7.75e-07  1.59e-05    12s
  55   2.72937176e+05  2.72933087e+05  2.98e-07 6.92e-07  1.10e-05    12s
  56   2.72936603e+05  2.72933206e+05  2.52e-07 5.13e-07  9.11e-06    12s
  57   2.72935389e+05  2.72933337e+05  1.54e-07 3.36e-07  5.50e-06    12s
  58   2.72934868e+05  2.72933381e+05  1.14e-07 2.80e-07  3.98e-06    12s
  59   2.72934262e+05  2.72933506e+05  5.93e-08 8.10e-08  2.03e-06    12s
  60   2.72934057e+05  2.72933535e+05  4.18e-08 6.07e-08  1.40e-06    13s
  61   2.72934017e+05  2.72933545e+05  3.88e-08 5.53e-08  1.26e-06    13s
  62   2.72933793e+05  2.72933550e+05  1.88e-08 5.52e-08  6.52e-07    13s
  63   2.72933642e+05  2.72933577e+05  5.34e-09 8.17e-08  1.76e-07    13s
  64   2.72933614e+05  2.72933581e+05  2.77e-09 2.37e-08  8.91e-08    13s
  65   2.72933614e+05  2.72933581e+05  1.68e-08 2.28e-08  8.79e-08    13s
  66   2.72933612e+05  2.72933581e+05  1.59e-08 4.13e-08  8.32e-08    13s
  67   2.72933607e+05  2.72933581e+05  1.80e-08 4.12e-08  6.86e-08    13s
  68   2.72933606e+05  2.72933582e+05  1.74e-08 4.94e-08  6.63e-08    14s
  69   2.72933606e+05  2.72933582e+05  1.74e-08 4.96e-08  6.62e-08    14s
  70   2.72933606e+05  2.72933582e+05  1.74e-08 4.93e-08  6.62e-08    14s

Barrier solved model in 70 iterations and 13.84 seconds
Optimal objective 2.72933606e+05


Root crossover log...

   51475 DPushes remaining with DInf 0.0000000e+00                14s
     143 DPushes remaining with DInf 0.0000000e+00                15s
       0 DPushes remaining with DInf 0.0000000e+00                15s

     888 PPushes remaining with PInf 1.3724100e-05                15s
       0 PPushes remaining with PInf 0.0000000e+00                15s

  Push phase complete: Pinf 0.0000000e+00, Dinf 3.2362356e-02     15s


Root simplex log...

Iteration    Objective       Primal Inf.    Dual Inf.      Time
   12527    2.7293358e+05   0.000000e+00   3.236236e-02     15s
   12529    2.7293358e+05   0.000000e+00   0.000000e+00     15s

Solved with barrier

Root relaxation: objective 2.729336e+05, 12529 iterations, 12.58 seconds

    Nodes    |    Current Node    |     Objective Bounds      |     Work
 Expl Unexpl |  Obj  Depth IntInf | Incumbent    BestBd   Gap | It/Node Time

     0     0 272933.582    0 16135 361495.000 272933.582  24.5%     -   17s
H    0     0                    291054.00000 272933.582  6.23%     -   17s
H    0     0                    290925.00000 272933.582  6.18%     -   18s
     0     0 272937.405    0 16124 290925.000 272937.405  6.18%     -   25s
     0     0 272937.528    0 16128 290925.000 272937.528  6.18%     -   28s
     0     0 272939.543    0 16126 290925.000 272939.543  6.18%     -   35s
H    0     0                    290906.00000 272939.543  6.18%     -   38s
     0     0 272939.866    0 16125 290906.000 272939.866  6.18%     -   40s
     0     0 272939.877    0 16124 290906.000 272939.877  6.18%     -   41s
     0     0 272939.877    0 16124 290906.000 272939.877  6.18%     -   47s
     0     2 272940.138    0 16124 290906.000 272940.138  6.18%     -   69s
     1     4 273193.667    1 16888 290906.000 272940.284  6.18% 22101  130s
     3     7 273325.475    2 18467 290906.000 273193.791  6.09% 25143  300s

Cutting planes:
  Gomory: 5

Explored 6 nodes (113365 simplex iterations) in 300.08 seconds
Thread count was 8 (of 8 available processors)

Solution count 4: 290906 290925 291054 361495 

Time limit reached
Best objective 2.909060000000e+05, best bound 2.731940000000e+05, gap 6.0886%

User-callback calls 174724, time in user-callback 0.93 sec
Solution written to /Users/mdeboute/Desktop/Etudes/Master/M2/S9/GOPP/Projet/multi-period-flp/solution/instSingle_I30_J500_T8_1_result.txt
